c Result of efficient AIG-to-CNF conversion using package CNF
p cnf 361 1241
-2 -3 28 0
-2 -20 28 0
-2 28 216 0
2 -28 0
2 3 20 -216 0
3 -332 4 -15 0
-3 332 0
-3 -4 0
-3 15 0
-4 324 5 0
4 -324 0
4 -5 0
-5 323 6 8 10 0
5 -323 0
5 -10 0
5 -8 0
5 -6 0
-6 297 298 299 7 0
6 -7 0
6 -299 0
6 -297 0
6 -298 0
-7 303 309 310 0
7 -303 0
7 -310 0
7 -309 0
-8 300 306 307 9 0
8 -9 0
8 -307 0
8 -300 0
8 -306 0
-9 301 302 321 0
9 -301 0
9 -321 0
9 -302 0
-10 319 322 11 13 0
10 -319 0
10 -13 0
10 -11 0
10 -322 0
-11 317 318 320 12 0
11 -12 0
11 -320 0
11 -317 0
11 -318 0
-12 304 305 0
12 -304 0
12 -305 0
-13 313 314 315 14 0
13 -14 0
13 -315 0
13 -313 0
13 -314 0
-14 308 311 312 316 0
14 -316 0
14 -312 0
14 -308 0
14 -311 0
15 325 -16 0
-15 -325 0
-15 16 0
16 326 -17 0
-16 -326 0
-16 17 0
17 -327 -18 0
17 327 -19 0
-17 327 19 0
-17 -327 18 0
18 -328 -329 0
18 328 -330 0
-18 328 330 0
-18 -328 329 0
19 -328 -331 0
19 328 -332 0
-19 328 332 0
-19 -328 331 0
-20 21 23 0
20 -21 0
20 -23 0
21 325 326 -22 4 0
-21 -4 0
-21 22 0
-21 -325 0
-21 -326 0
-22 -328 329 0
-22 329 330 0
-22 -327 0
-22 -328 330 0
22 327 328 -330 0
22 327 -329 -330 0
22 327 328 -329 0
23 -331 4 -24 0
-23 331 0
-23 -4 0
-23 24 0
24 325 -25 0
-24 -325 0
-24 25 0
25 326 -26 0
-25 -326 0
-25 26 0
26 327 -27 0
26 -327 328 -329 0
-26 -327 -328 0
-26 327 27 0
-26 -327 329 0
27 -328 -330 0
27 328 -331 0
-27 328 331 0
-27 -328 330 0
-28 -21 204 211 0
-28 29 204 211 0
28 -211 0
28 -204 0
28 21 -29 0
-29 154 191 0
-29 -190 191 0
-29 -30 191 0
29 -191 0
29 30 -154 190 0
-30 31 100 0
30 -31 0
30 -100 0
-31 32 91 0
31 -32 0
31 -91 0
-32 -5 0
-32 33 65 0
32 5 -65 0
32 5 -33 0
-33 -324 34 0
-33 324 35 50 0
33 324 -50 0
33 -324 -34 0
33 324 -35 0
-34 15 24 0
-34 347 348 0
-34 348 24 0
-34 347 15 0
34 -348 -15 0
34 -347 -24 0
35 -325 -348 -43 0
35 325 -348 -36 0
-35 348 0
-35 -325 43 0
-35 325 36 0
36 326 -37 0
36 -326 -40 0
-36 -326 40 0
-36 326 37 0
37 327 -38 0
37 -327 -39 0
-37 -327 39 0
-37 327 38 0
38 -328 -347 0
38 328 -348 0
-38 328 348 0
-38 -328 347 0
39 -328 -345 0
39 328 -346 0
-39 328 346 0
-39 -328 345 0
40 327 -41 0
40 -327 -42 0
-40 -327 42 0
-40 327 41 0
41 -328 -343 0
41 328 -344 0
-41 328 344 0
-41 -328 343 0
42 -328 -341 0
42 328 -342 0
-42 328 342 0
-42 -328 341 0
43 326 -44 0
43 -326 -47 0
-43 -326 47 0
-43 326 44 0
44 327 -45 0
44 -327 -46 0
-44 -327 46 0
-44 327 45 0
45 -328 -339 0
45 328 -340 0
-45 328 340 0
-45 -328 339 0
46 -328 -337 0
46 328 -338 0
-46 328 338 0
-46 -328 337 0
47 327 -48 0
47 -327 -49 0
-47 -327 49 0
-47 327 48 0
48 -328 -335 0
48 328 -336 0
-48 328 336 0
-48 -328 335 0
49 -328 -333 0
49 328 -334 0
-49 328 334 0
-49 -328 333 0
50 -325 -347 -58 0
50 325 -347 -51 0
-50 347 0
-50 -325 58 0
-50 325 51 0
51 326 -52 0
51 -326 -55 0
-51 -326 55 0
-51 326 52 0
52 327 -53 0
52 -327 -54 0
-52 -327 54 0
-52 327 53 0
53 -328 -346 0
53 328 -347 0
-53 328 347 0
-53 -328 346 0
54 -328 -344 0
54 328 -345 0
-54 328 345 0
-54 -328 344 0
55 327 -56 0
55 -327 -57 0
-55 -327 57 0
-55 327 56 0
56 -328 -342 0
56 328 -343 0
-56 328 343 0
-56 -328 342 0
57 -328 -340 0
57 328 -341 0
-57 328 341 0
-57 -328 340 0
58 326 -59 0
58 -326 -62 0
-58 -326 62 0
-58 326 59 0
59 327 -60 0
59 -327 -61 0
-59 -327 61 0
-59 327 60 0
60 -328 -338 0
60 328 -339 0
-60 328 339 0
-60 -328 338 0
61 -328 -336 0
61 328 -337 0
-61 328 337 0
-61 -328 336 0
62 327 -63 0
62 -327 -64 0
-62 -327 64 0
-62 327 63 0
63 -328 -334 0
63 328 -335 0
-63 328 335 0
-63 -328 334 0
64 -328 -332 0
64 328 -333 0
-64 328 333 0
-64 -328 332 0
-65 -324 66 0
-65 324 75 83 0
65 324 -83 0
65 -324 -66 0
65 324 -75 0
-66 67 71 0
-66 349 350 0
-66 350 71 0
-66 349 67 0
66 -350 -67 0
66 -349 -71 0
67 325 -68 0
-67 -325 0
-67 68 0
68 -326 -69 0
68 326 -70 0
-68 326 70 0
-68 -326 69 0
69 327 328 -330 0
69 327 -328 -329 0
-69 -327 0
-69 -328 329 0
-69 328 330 0
70 -327 -19 0
70 327 -49 0
-70 327 49 0
-70 -327 19 0
71 325 -72 0
-71 -325 0
-71 72 0
72 -326 -73 0
72 326 -74 0
-72 326 74 0
-72 -326 73 0
73 327 328 -329 0
-73 329 0
-73 -328 0
-73 -327 0
74 -327 -27 0
74 327 -64 0
-74 327 64 0
-74 -327 27 0
75 -325 -350 -80 0
75 325 -350 -76 0
-75 350 0
-75 -325 80 0
-75 325 76 0
76 326 -77 0
76 -326 -79 0
-76 -326 79 0
-76 326 77 0
77 -327 -38 0
77 327 -78 0
-77 327 78 0
-77 -327 38 0
78 -328 -349 0
78 328 -350 0
-78 328 350 0
-78 -328 349 0
79 327 -39 0
79 -327 -41 0
-79 -327 41 0
-79 327 39 0
80 326 -81 0
80 -326 -82 0
-80 -326 82 0
-80 326 81 0
81 327 -42 0
81 -327 -45 0
-81 -327 45 0
-81 327 42 0
82 327 -46 0
82 -327 -48 0
-82 -327 48 0
-82 327 46 0
83 -325 -349 -88 0
83 325 -349 -84 0
-83 349 0
-83 -325 88 0
-83 325 84 0
84 326 -85 0
84 -326 -87 0
-84 -326 87 0
-84 326 85 0
85 -327 -53 0
85 327 -86 0
-85 327 86 0
-85 -327 53 0
86 -328 -348 0
86 328 -349 0
-86 328 349 0
-86 -328 348 0
87 327 -54 0
87 -327 -56 0
-87 -327 56 0
-87 327 54 0
88 326 -89 0
88 -326 -90 0
-88 -326 90 0
-88 326 89 0
89 327 -57 0
89 -327 -60 0
-89 -327 60 0
-89 327 57 0
90 327 -61 0
90 -327 -63 0
-90 -327 63 0
-90 327 61 0
91 4 -97 0
91 4 -92 0
-91 -4 0
-91 92 97 0
-92 340 93 0
-92 338 96 0
-92 93 96 0
-92 338 340 0
92 -338 -93 0
92 -340 -96 0
93 325 -94 0
93 -325 -95 0
-93 -325 95 0
-93 325 94 0
94 -326 -70 0
94 326 -82 0
-94 326 82 0
-94 -326 70 0
95 326 -69 0
-95 -326 0
-95 69 0
96 -325 -16 0
96 325 -43 0
-96 325 43 0
-96 -325 16 0
-97 341 98 0
-97 339 99 0
-97 98 99 0
-97 339 341 0
97 -339 -98 0
97 -341 -99 0
98 -325 -25 0
98 325 -58 0
-98 325 58 0
-98 -325 25 0
99 -325 -72 0
99 325 -88 0
-99 325 88 0
-99 -325 72 0
-100 101 146 150 151 0
100 -151 0
100 -150 0
100 -101 0
100 -146 0
101 -102 135 0
101 -114 135 0
101 -324 135 0
-101 -135 0
-101 324 102 114 0
-102 325 103 0
-102 103 110 112 0
102 -103 0
102 -325 -110 0
102 -325 -112 0
103 325 -355 -104 0
103 -325 -355 -51 0
-103 355 0
-103 -325 51 0
-103 325 104 0
104 -326 -105 0
104 326 -107 0
-104 326 107 0
-104 -326 105 0
105 -327 -86 0
105 327 -106 0
-105 327 106 0
-105 -327 86 0
106 -328 -350 0
106 328 -351 0
-106 328 351 0
-106 -328 350 0
107 327 -108 0
107 -327 -109 0
-107 -327 109 0
-107 327 108 0
108 -328 -354 0
108 328 -355 0
-108 328 355 0
-108 -328 354 0
109 -328 -352 0
109 328 -353 0
-109 328 353 0
-109 -328 352 0
-110 94 111 0
-110 345 346 0
-110 346 111 0
-110 345 94 0
110 -346 -94 0
110 -345 -111 0
111 -326 -74 0
111 326 -90 0
-111 326 90 0
-111 -326 74 0
112 325 -353 0
112 -353 -113 0
-112 353 0
-112 -325 113 0
113 326 -87 0
113 -326 -89 0
-113 -326 89 0
-113 326 87 0
-114 325 115 131 0
-114 -325 115 129 0
114 -115 0
114 -325 -129 0
114 325 -131 0
-115 -325 118 120 0
-115 116 118 120 0
115 -120 0
115 -118 0
115 325 -116 0
-116 346 113 0
-116 345 117 0
-116 113 117 0
-116 345 346 0
116 -345 -113 0
116 -346 -117 0
117 326 -79 0
117 -326 -81 0
-117 -326 81 0
-117 326 79 0
118 326 -112 -119 0
118 -326 -85 -112 0
-118 112 0
-118 -326 85 0
-118 326 119 0
119 -327 -106 0
119 327 -109 0
-119 327 109 0
-119 -327 106 0
-120 344 124 0
-120 121 124 0
120 -124 0
120 -344 -121 0
121 325 -122 0
121 -325 -123 0
-121 -325 123 0
-121 325 122 0
122 326 -40 0
122 -326 -44 0
-122 -326 44 0
-122 326 40 0
123 -326 -17 0
123 326 -47 0
-123 326 47 0
-123 -326 17 0
124 325 -354 -125 0
124 -325 -354 -117 0
-124 354 0
-124 -325 117 0
-124 325 125 0
125 -326 -77 0
125 326 -126 0
-125 326 126 0
-125 -326 77 0
126 327 -127 0
126 -327 -128 0
-126 -327 128 0
-126 327 127 0
127 -328 -353 0
127 328 -354 0
-127 328 354 0
-127 -328 353 0
128 -328 -351 0
128 328 -352 0
-128 328 352 0
-128 -328 351 0
-129 122 130 0
-129 351 352 0
-129 352 130 0
-129 351 122 0
129 -352 -122 0
129 -351 -130 0
130 326 -55 0
130 -326 -59 0
-130 -326 59 0
-130 326 55 0
-131 132 134 0
-131 351 352 0
-131 352 134 0
-131 351 132 0
131 -352 -132 0
131 -351 -134 0
132 -326 -37 0
132 326 -133 0
-132 326 133 0
-132 -326 37 0
133 -327 -78 0
133 327 -128 0
-133 327 128 0
-133 -327 78 0
134 -326 -52 0
134 326 -105 0
-134 326 105 0
-134 -326 52 0
-135 324 5 0
-135 5 -136 0
-135 5 -140 0
135 -5 0
135 -324 136 140 0
-136 352 137 0
-136 351 139 0
-136 137 139 0
-136 351 352 0
136 -351 -137 0
136 -352 -139 0
137 325 -138 0
-137 -325 0
-137 138 0
138 -326 -26 0
138 326 -62 0
-138 326 62 0
-138 -326 26 0
139 325 -123 0
-139 -325 0
-139 123 0
-140 98 141 144 0
-140 355 141 144 0
140 -144 0
140 -141 0
140 -355 -98 0
141 325 -142 0
141 325 -346 -95 0
-141 -325 0
-141 346 142 0
-141 95 142 0
142 -345 -143 0
-142 345 0
-142 143 0
143 326 -73 0
-143 -326 0
-143 73 0
-144 93 145 0
-144 353 354 0
-144 354 145 0
-144 353 93 0
144 -354 -93 0
144 -353 -145 0
145 325 -111 0
145 -325 -143 0
-145 -325 143 0
-145 325 111 0
146 4 -147 0
146 -342 4 -149 0
-146 -4 0
-146 147 149 0
-146 342 147 0
147 -343 -148 0
-147 343 0
-147 148 0
148 325 -130 0
148 -325 -138 0
-148 -325 138 0
-148 325 130 0
149 -325 -68 0
149 325 -80 0
-149 325 80 0
-149 -325 68 0
150 -337 4 -145 0
-150 337 0
-150 -4 0
-150 145 0
151 4 -153 0
151 4 -152 0
-151 -4 0
-151 152 153 0
-152 335 71 0
-152 333 137 0
-152 71 137 0
-152 333 335 0
152 -333 -71 0
152 -335 -137 0
-153 336 67 0
-153 334 139 0
-153 67 139 0
-153 334 336 0
153 -334 -67 0
153 -336 -139 0
154 -300 3 0
154 3 -155 -161 0
-154 -3 0
-154 300 155 0
-154 300 161 0
155 -324 -96 -160 0
155 324 -156 -160 0
-155 160 0
-155 -324 96 0
-155 324 156 0
156 -325 -36 0
156 325 -157 0
-156 325 157 0
-156 -325 36 0
157 -326 -133 0
157 326 -158 0
-157 326 158 0
-157 -326 133 0
158 -327 -127 0
158 327 -159 0
-158 327 159 0
-158 -327 127 0
159 -328 -355 0
159 328 -356 0
-159 328 356 0
-159 -328 355 0
160 -356 5 0
-160 356 0
-160 -5 0
161 -162 -168 0
161 -316 162 0
-161 -162 168 0
-161 316 162 0
162 -324 -99 -167 0
162 324 -163 -167 0
-162 167 0
-162 -324 99 0
-162 324 163 0
163 -325 -84 0
163 325 -164 0
-163 325 164 0
-163 -325 84 0
164 -326 -119 0
164 326 -165 0
-164 326 165 0
-164 -326 119 0
165 -327 -108 0
165 327 -166 0
-165 327 166 0
-165 -327 108 0
166 -328 -356 0
166 328 -357 0
-166 328 357 0
-166 -328 356 0
167 -357 5 0
-167 357 0
-167 -5 0
168 169 -175 0
168 -169 -188 0
-168 -169 188 0
-168 169 175 0
169 -324 -149 -174 0
169 324 -170 -174 0
-169 174 0
-169 -324 149 0
-169 324 170 0
170 -325 -76 0
170 325 -171 0
-170 325 171 0
-170 -325 76 0
171 -326 -126 0
171 326 -172 0
-171 326 172 0
-171 -326 126 0
172 -327 -159 0
172 327 -173 0
-172 327 173 0
-172 -327 159 0
173 -328 -357 0
173 328 -358 0
-173 328 358 0
-173 -328 357 0
174 -358 5 0
-174 358 0
-174 -5 0
175 -176 -187 0
175 176 -181 0
-175 176 181 0
-175 -176 187 0
176 -324 -148 -180 0
176 324 177 -180 0
-176 180 0
-176 -324 148 0
-176 324 -177 0
-177 -325 -134 0
-177 325 178 0
177 325 -178 0
177 -325 134 0
-178 -326 -107 0
-178 326 179 0
178 326 -179 0
178 -326 107 0
-179 -327 -166 0
-179 327 328 0
-179 327 -358 0
179 -327 166 0
179 327 -328 358 0
180 -359 5 0
-180 359 0
-180 -5 0
-181 324 182 0
-181 325 -182 0
181 -325 -182 0
181 -324 182 0
182 -324 -121 -186 0
182 324 183 -186 0
-182 186 0
-182 -324 121 0
-182 324 -183 0
-183 -325 -132 0
-183 325 184 0
183 325 -184 0
183 -325 132 0
-184 -326 -158 0
-184 326 185 0
184 326 -185 0
184 -326 158 0
-185 -327 -173 0
-185 327 328 0
-185 327 -359 0
185 -327 173 0
185 327 -328 359 0
186 -360 5 0
-186 360 0
-186 -5 0
-187 326 182 0
-187 327 -182 0
187 -327 -182 0
187 -326 182 0
188 176 -189 0
-188 -176 0
-188 189 0
189 -328 182 0
-189 328 0
-189 -182 0
-190 300 23 0
190 -300 0
190 -23 0
191 299 -155 -192 200 0
-191 -299 0
-191 -200 0
-191 192 0
-191 155 0
192 -162 -193 0
192 -315 162 0
-192 -162 193 0
-192 315 162 0
193 169 -194 0
193 -169 -198 0
-193 -169 198 0
-193 169 194 0
194 -176 -197 0
194 176 -195 0
-194 176 195 0
-194 -176 197 0
-195 323 196 0
195 -323 0
195 -196 0
196 -324 -182 0
-196 324 0
-196 182 0
-197 325 182 0
-197 326 -182 0
197 -326 -182 0
197 -325 182 0
198 176 -199 0
-198 -176 0
-198 199 0
-199 327 182 0
-199 328 -182 0
199 -328 -182 0
199 -327 182 0
-200 151 3 201 202 0
200 -151 0
200 -202 0
200 -201 0
200 -3 0
-201 101 150 0
201 -101 0
201 -150 0
-202 146 203 0
202 -146 0
202 -203 0
-203 31 23 0
203 -31 0
203 -23 0
204 298 -155 205 -207 0
-204 -298 0
-204 207 0
-204 -205 0
-204 155 0
-205 32 100 20 206 0
205 -206 0
205 -32 0
205 -20 0
205 -100 0
-206 91 3 0
206 -91 0
206 -3 0
207 -162 -208 0
207 -314 162 0
-207 -162 208 0
-207 314 162 0
208 169 -209 0
208 -169 -210 0
-208 -169 210 0
-208 169 209 0
209 -176 -181 0
209 -322 176 0
-209 -176 181 0
-209 322 176 0
210 -176 -189 0
210 176 -187 0
-210 176 187 0
-210 -176 189 0
211 297 -155 205 -212 0
-211 -297 0
-211 212 0
-211 -205 0
-211 155 0
212 -162 -213 0
212 -313 162 0
-212 -162 213 0
-212 313 162 0
213 169 -214 0
213 -169 -215 0
-213 -169 215 0
-213 169 214 0
214 -176 -195 0
214 -321 176 0
-214 -176 195 0
-214 321 176 0
215 -176 -199 0
215 176 -197 0
-215 176 197 0
-215 -176 199 0
-216 217 243 262 291 0
216 -291 0
216 -217 0
216 -262 0
216 -243 0
-217 218 223 228 0
-217 -310 223 228 0
217 -228 0
217 -223 0
217 310 -218 0
218 30 -155 -221 0
218 30 155 -219 0
-218 -30 0
-218 -155 221 0
-218 155 219 0
-219 310 220 0
-219 310 162 0
219 -310 0
219 -162 -220 0
220 -169 -209 0
220 -318 169 0
-220 -169 209 0
-220 318 169 0
221 162 -222 0
-221 -162 0
-221 222 0
222 169 -210 0
-222 -169 0
-222 210 0
223 322 224 -227 0
-223 227 0
-223 -224 0
-223 -322 0
-224 32 155 201 225 0
224 -225 0
224 -32 0
224 -201 0
224 -155 0
-225 146 226 0
225 -146 0
225 -226 0
-226 91 151 0
226 -91 0
226 -151 0
227 162 -208 0
-227 -162 0
-227 208 0
-228 229 231 233 241 0
228 -229 0
228 -241 0
228 -233 0
228 -231 0
229 305 30 -155 -230 0
-229 -305 0
-229 230 0
-229 155 0
-229 -30 0
230 162 -213 0
-230 -162 0
-230 213 0
-231 192 232 0
-231 -315 232 0
-231 -224 232 0
231 -232 0
231 315 -192 224 0
232 316 -161 224 0
-232 -224 0
-232 161 0
-232 -316 0
-233 234 240 0
-233 -224 234 0
-233 -323 234 0
233 -234 0
233 323 224 -240 0
234 -155 -235 0
234 -235 238 0
234 -30 -235 0
-234 235 0
-234 30 155 -238 0
235 224 -236 0
-235 -224 0
-235 236 0
236 162 -237 0
-236 -162 0
-236 237 0
237 169 -215 0
-237 -169 0
-237 215 0
238 162 169 176 -239 0
-238 239 0
-238 -176 0
-238 -162 0
-238 -169 0
-239 325 182 0
-239 324 -182 0
239 -325 182 0
239 -324 -182 0
240 162 -193 0
-240 -162 0
-240 193 0
241 308 30 -155 -242 0
-241 -308 0
-241 242 0
-241 155 0
-241 -30 0
242 162 -168 0
-242 -162 0
-242 168 0
-243 244 246 250 254 0
243 -254 0
243 -250 0
243 -244 0
243 -246 0
244 302 30 -155 -245 0
-244 -302 0
-244 245 0
-244 155 0
-244 -30 0
245 162 -220 0
245 -162 -222 0
-245 -162 222 0
-245 162 220 0
246 304 30 -155 -247 0
-246 -304 0
-246 247 0
-246 155 0
-246 -30 0
247 162 -248 0
247 -162 -249 0
-247 -162 249 0
-247 162 248 0
248 -169 -175 0
248 -320 169 0
-248 -169 175 0
-248 320 169 0
249 169 -188 0
-249 -169 0
-249 188 0
250 303 30 -155 -251 0
-250 -303 0
-250 251 0
-250 155 0
-250 -30 0
251 162 -252 0
251 -162 -253 0
-251 -162 253 0
-251 162 252 0
252 -169 -194 0
252 -319 169 0
-252 -169 194 0
-252 319 169 0
253 169 -198 0
-253 -169 0
-253 198 0
-254 255 258 259 0
-254 -309 258 259 0
254 -259 0
254 -258 0
254 309 -255 0
255 30 155 -256 0
255 30 -155 -236 0
-255 -30 0
-255 -155 236 0
-255 155 256 0
-256 309 257 0
-256 309 162 0
256 -309 0
256 -162 -257 0
257 -169 -214 0
257 -317 169 0
-257 -169 214 0
-257 317 169 0
258 320 224 -247 0
-258 247 0
-258 -224 0
-258 -320 0
-259 -224 261 0
-259 -317 261 0
-259 260 261 0
259 -261 0
259 317 224 -260 0
260 -162 -237 0
260 162 -257 0
-260 162 257 0
-260 -162 237 0
261 306 30 -155 -227 0
-261 -306 0
-261 227 0
-261 155 0
-261 -30 0
-262 -312 266 268 0
-262 263 266 268 0
262 -268 0
262 -266 0
262 312 -263 0
263 30 -155 -265 0
263 30 155 -264 0
-263 -30 0
-263 -155 265 0
-263 155 264 0
-264 312 248 0
-264 312 162 0
264 -312 0
264 -162 -248 0
265 162 -249 0
-265 -162 0
-265 249 0
-266 -224 267 0
-266 -321 267 0
-266 230 267 0
266 -267 0
266 321 224 -230 0
267 318 224 -245 0
-267 245 0
-267 -224 0
-267 -318 0
-268 269 279 288 290 0
268 -288 0
268 -290 0
268 -269 0
268 -279 0
-269 270 274 0
-269 224 -265 270 0
269 -270 0
269 -224 -274 0
269 265 -274 0
270 -30 224 -242 0
270 224 -242 271 0
-270 242 0
-270 -224 0
-270 30 -271 0
271 155 162 169 -272 0
-271 272 0
-271 -169 0
-271 -155 0
-271 -162 0
272 176 -273 0
-272 -176 0
-272 273 0
273 -324 182 0
-273 324 0
-273 -182 0
274 30 155 162 -275 0
-274 275 0
-274 -162 0
-274 -30 0
-274 -155 0
-275 -169 272 0
-275 169 276 0
275 -169 -272 0
275 169 -276 0
-276 -176 278 0
-276 176 277 189 0
276 176 -277 0
276 -176 -278 0
276 176 -189 0
277 -327 -182 0
-277 327 0
-277 182 0
-278 326 182 0
-278 325 -182 0
278 -326 182 0
278 -325 -182 0
-279 -280 -282 286 0
-279 280 282 -285 0
-279 280 282 286 0
-279 -280 -282 -285 0
279 280 -282 0
279 -280 282 0
279 285 -286 0
280 224 -281 0
-280 -224 0
-280 281 0
281 162 -253 0
-281 -162 0
-281 253 0
282 30 155 162 -283 0
-282 283 0
-282 -162 0
-282 -30 0
-282 -155 0
283 169 -176 -239 0
283 169 176 -284 0
-283 -169 0
-283 -176 239 0
-283 176 284 0
-284 327 182 0
-284 326 -182 0
284 -327 182 0
284 -326 -182 0
285 -221 224 0
-285 221 0
-285 -224 0
286 30 155 162 -287 0
-286 287 0
-286 -162 0
-286 -30 0
-286 -155 0
287 169 -176 -273 0
287 169 176 -278 0
-287 -169 0
-287 -176 273 0
-287 176 278 0
-288 -286 289 0
-288 285 289 0
288 -289 0
288 -285 286 0
289 301 30 -155 -260 0
-289 -301 0
-289 260 0
-289 155 0
-289 -30 0
290 307 30 -155 -240 0
-290 -307 0
-290 240 0
-290 155 0
-290 -30 0
-291 -311 292 294 0
-291 292 294 295 0
291 -292 0
291 -294 0
291 311 -295 0
-292 207 293 0
-292 -314 293 0
-292 -224 293 0
292 -293 0
292 314 -207 224 0
293 313 -212 224 0
-293 -224 0
-293 212 0
-293 -313 0
294 319 224 -251 0
-294 251 0
-294 -224 0
-294 -319 0
295 30 155 -296 0
295 30 -155 -281 0
-295 -30 0
-295 -155 281 0
-295 155 296 0
-296 311 252 0
-296 311 162 0
296 -311 0
296 -162 -252 0
-361 0
2 0

